
******************************************************************************
This program contains Ipopt, a library for large-scale nonlinear optimization.
 Ipopt is released as open source code under the Eclipse Public License (EPL).
         For more information visit http://projects.coin-or.org/Ipopt
******************************************************************************

This is Ipopt version 3.12.6, running with linear solver ma57.

Number of nonzeros in equality constraint Jacobian...:       33
Number of nonzeros in inequality constraint Jacobian.:       20
Number of nonzeros in Lagrangian Hessian.............:       35

Total number of variables............................:       11
                     variables with only lower bounds:        8
                variables with lower and upper bounds:        0
                     variables with only upper bounds:        0
Total number of equality constraints.................:        3
Total number of inequality constraints...............:        8
        inequality constraints with only lower bounds:        0
   inequality constraints with lower and upper bounds:        0
        inequality constraints with only upper bounds:        8

iter    objective    inf_pr   inf_du lg(mu)  ||d||  lg(rg) alpha_du alpha_pr  ls
   0  3.2952674e+00 2.00e+02 5.98e-01  -1.0 0.00e+00    -  0.00e+00 0.00e+00   0
   1  3.3594085e+00 1.60e+02 2.86e+00  -1.0 1.20e+00    -  7.87e-01 1.96e-01h  1
   2  4.4471256e+00 1.30e+02 3.12e+00  -1.0 9.24e+00    -  7.84e-02 1.84e-01h  1
   3  5.0803928e+00 1.17e+02 4.26e+00  -1.0 8.90e+00    -  1.67e-01 9.53e-02h  1
   4  1.2195185e+01 2.38e+00 1.29e+01  -1.0 4.61e+00    -  2.40e-01 1.00e+00h  1
   5  1.1776118e+01 7.75e-01 2.04e+00  -1.0 1.86e+00    -  1.00e+00 9.90e-01h  1
   6  1.2065706e+01 2.03e-01 3.76e-02  -1.0 7.77e-01    -  1.00e+00 1.00e+00f  1
   7  1.1374923e+01 5.48e-01 3.35e-02  -1.7 1.11e+00    -  1.00e+00 1.00e+00h  1
   8  1.1395620e+01 5.13e-03 5.42e-04  -1.7 3.56e-01    -  1.00e+00 1.00e+00h  1
   9  1.1243992e+01 1.72e-02 4.99e-02  -3.8 3.99e-01    -  9.24e-01 9.01e-01f  1
iter    objective    inf_pr   inf_du lg(mu)  ||d||  lg(rg) alpha_du alpha_pr  ls
  10  1.1229936e+01 5.35e-05 3.49e-06  -3.8 1.12e-01    -  1.00e+00 1.00e+00h  1
  11  1.1228755e+01 6.64e-07 6.03e-08  -5.7 3.48e-03    -  1.00e+00 1.00e+00h  1
  12  1.1228740e+01 1.63e-10 3.20e-11  -8.6 7.86e-05    -  1.00e+00 1.00e+00h  1

Number of Iterations....: 12

                                   (scaled)                 (unscaled)
Objective...............:   1.1228740044285679e+01    1.1228740044285679e+01
Dual infeasibility......:   3.2046809650410069e-11    3.2046809650410069e-11
Constraint violation....:   1.6250201184675461e-10    1.6250201184675461e-10
Complementarity.........:   2.5392584832906081e-09    2.5392584832906081e-09
Overall NLP error.......:   2.5392584832906081e-09    2.5392584832906081e-09


Number of objective function evaluations             = 13
Number of objective gradient evaluations             = 13
Number of equality constraint evaluations            = 13
Number of inequality constraint evaluations          = 13
Number of equality constraint Jacobian evaluations   = 13
Number of inequality constraint Jacobian evaluations = 13
Number of Lagrangian Hessian evaluations             = 12
Total CPU secs in IPOPT (w/o function evaluations)   =      0.007
Total CPU secs in NLP function evaluations           =      0.000

EXIT: Optimal Solution Found.

************************ CUTEst statistics ************************


 Package used            :  IPOPT
 Problem                 :  TRUSPYR2  
 # variables             =              11
 # constraints           =              11
 # objective functions   =        0.2700000E+02
 # objective gradients   =        0.1400000E+02
 # objective Hessians    =        0.1300000E+02
 # Hessian-vector prdct  =        0.0000000E+00
 # constraints functions =        0.2800000E+02
 # constraints gradients =        0.1500000E+02
 # constraints Hessians  =        0.1300000E+02
 Exit code               =               0
 Final f                 =   0.1122874E+02
 Set up time             =            0.00 seconds
 Solve time              =            0.02 seconds


******************************************************************

System Time =       0.0049999999 s.
